solution status: optimal solution found
objective value:                                    1
$_136_y                                            13 	(obj:0)
$_136_z                                            19 	(obj:0)
$_133_y                                            16 	(obj:0)
$_133_z                                            14 	(obj:0)
$_144_y                                            13 	(obj:0)
$_144_z                                            13 	(obj:0)
$_145_y                                            14 	(obj:0)
$_145_z                                            11 	(obj:0)
$_151_y                                            14 	(obj:0)
$_151_z                                            12 	(obj:0)
$_146_y                                            15 	(obj:0)
$_146_z                                            15 	(obj:0)
$_148_y                                            19 	(obj:0)
$_148_z                                            13 	(obj:0)
$_152_y                                            13 	(obj:0)
$_152_z                                            12 	(obj:0)
$_137_y                                            11 	(obj:0)
$_137_z                                            21 	(obj:0)
$_147_y                                            19 	(obj:0)
$_147_z                                            16 	(obj:0)
$_134_y                                            13 	(obj:0)
$_134_z                                            21 	(obj:0)
$_135_y                                            11 	(obj:0)
$_135_z                                            19 	(obj:0)
$_150_y                                            15 	(obj:0)
$_150_z                                            12 	(obj:0)
$_153_y                                            14 	(obj:0)
$_153_z                                            14 	(obj:0)
$_149_y                                            16 	(obj:0)
$_149_z                                            12 	(obj:0)
$_138_y                                            12 	(obj:0)
$_138_z                                            21 	(obj:0)
x43                                                 1 	(obj:1)
